
Gurobi 12.0.2 (win64) logging started Thu Jun  5 16:20:32 2025

Set parameter LogFile to value "C:\Ioana\_uni\honours\slp\algorithm\Main_files\results\others\neuro_new1\Task_353_Sample002_irr_gurobi.log"
Gurobi Optimizer version 12.0.2 build v12.0.2rc0 (win64 - Windows 11.0 (26100.2))

CPU model: Intel(R) Core(TM) Ultra 5 125H, instruction set [SSE2|AVX|AVX2]
Thread count: 14 physical cores, 18 logical processors, using up to 18 threads

Non-default parameters:
TimeLimit  2200

Optimize a model with 47226 rows, 34492 columns and 146679 nonzeros
Model fingerprint: 0x08583e6e
Variable types: 17247 continuous, 17245 integer (17245 binary)
Coefficient statistics:
  Matrix range     [1e-04, 8e+04]
  Objective range  [5e-05, 1e+01]
  Bounds range     [1e+00, 1e+03]
  RHS range        [1e+00, 1e+00]
Found heuristic solution: objective 10.0029727
Presolve removed 31170 rows and 21836 columns
Presolve time: 0.53s
Presolved: 16056 rows, 12656 columns, 53306 nonzeros
Variable types: 6268 continuous, 6388 integer (6388 binary)

Root relaxation: objective 2.997185e-02, 437 iterations, 0.03 seconds (0.03 work units)

    Nodes    |    Current Node    |     Objective Bounds      |     Work
 Expl Unexpl |  Obj  Depth IntInf | Incumbent    BestBd   Gap | It/Node Time

     0     0    0.02997    0    6   10.00297    0.02997   100%     -    0s

Cutting planes:
  Learned: 1
  Cover: 1
  Flow cover: 1

Explored 1 nodes (437 simplex iterations) in 0.84 seconds (0.54 work units)
Thread count was 18 (of 18 available processors)

Solution count 1: 10.003 

Optimal solution found (tolerance 1.00e-04)
Best objective 1.000297265161e+01, best bound 1.000297265161e+01, gap 0.0000%

Gurobi 12.0.2 (win64) logging started Fri Jun  6 16:50:23 2025

Set parameter LogFile to value "C:\Ioana\_uni\honours\slp\algorithm\Main_files\results\others\neuro_new1\Task_353_Sample002_irr_gurobi.log"
Gurobi Optimizer version 12.0.2 build v12.0.2rc0 (win64 - Windows 11.0 (26100.2))

CPU model: Intel(R) Core(TM) Ultra 5 125H, instruction set [SSE2|AVX|AVX2]
Thread count: 14 physical cores, 18 logical processors, using up to 18 threads

Non-default parameters:
TimeLimit  2200

Optimize a model with 47226 rows, 34492 columns and 146679 nonzeros
Model fingerprint: 0x08583e6e
Variable types: 17247 continuous, 17245 integer (17245 binary)
Coefficient statistics:
  Matrix range     [1e-04, 8e+04]
  Objective range  [5e-05, 1e+01]
  Bounds range     [1e+00, 1e+03]
  RHS range        [1e+00, 1e+00]
Found heuristic solution: objective 10.0029727
Presolve removed 31170 rows and 21836 columns
Presolve time: 0.32s
Presolved: 16056 rows, 12656 columns, 53306 nonzeros
Variable types: 6268 continuous, 6388 integer (6388 binary)

Root relaxation: objective 2.997185e-02, 437 iterations, 0.02 seconds (0.03 work units)

    Nodes    |    Current Node    |     Objective Bounds      |     Work
 Expl Unexpl |  Obj  Depth IntInf | Incumbent    BestBd   Gap | It/Node Time

     0     0    0.02997    0    6   10.00297    0.02997   100%     -    0s

Cutting planes:
  Learned: 1
  Cover: 1
  Flow cover: 1

Explored 1 nodes (437 simplex iterations) in 0.48 seconds (0.54 work units)
Thread count was 18 (of 18 available processors)

Solution count 1: 10.003 

Optimal solution found (tolerance 1.00e-04)
Best objective 1.000297265161e+01, best bound 1.000297265161e+01, gap 0.0000%
